COLUMNS

passenger_count
pickup_ID
dropoff_ID
request_time_sec
pickup_district
dropoff_district
LDuals
IDuals
vehicle_ID
pick_position
drop_position

REQUESTS_INFO
1      455       556       31168     52        199       127       127       14        1         3         
1      308       216       31135     127       178       183       183       31        1         2         
2      312       488       31119     87        199       194       194       56        1         4         
1      1151      916       31080     291       291       287       287       69        1         2         
2      331       462       31163     127       189       206       206       70        1         2         
1      1131      1023      31147     291       291       226       226       76        1         3         
3      927       768       31114     290       290       230       230       80        1         3         
1      983       907       31156     291       290       233       233       89        1         3         
1      257       527       31070     87        52        254       254       97        1         4         
1      824       718       31154     291       189       132       132       100       1         3         
2      235       295       31084     87        87        239       239       115       1         2         
1      1045      982       31090     291       291       278       278       139       1         2         
1      889       629       31148     290       189       186       186       156       1         3         
1      915       606       31102     291       189       247       247       191       1         2         
1      896       675       31085     291       189       231       231       192       1         3         
3      924       1032      31143     290       84        211       211       194       1         2         
3      745       691       31160     290       131       137       137       205       1         2         
1      887       1010      31001     290       290       316       316       216       1         2         
1      536       841       31151     189       290       124.5     124.5     225       1         3         
1      662       1140      31147     131       84        115       115       228       1         3         
1      1149      672       31093     291       189       267       267       249       1         2         
1      810       747       31131     290       290       185       185       255       1         3         
1      1151      1250      31167     291       129       200       200       281       1         2         
4      915       1012      31163     291       84        203       203       286       1         2         
1      1132      824       31164     291       291       194       194       318       1         3         
4      904       720       31070     290       290       286       286       341       1         2         
1      31        34        31159     9         98        91        91        342       1         2         
2      1025      534       31157     291       199       291       291       346       1         2         
1      792       631       31167     290       189       129       129       351       1         3         
3      479       686       31139     52        131       183       183       369       1         3         
1      1012      771       31066     84        290       256       256       370       1         3         
3      948       815       31026     290       290       329       329       383       1         2         
1      333       532       31143     119       199       158       158       384       1         3         
3      479       686       31139     52        131       160       160       404       1         3         
1      794       1218      31084     290       84        0         0         482       1         4         
1      960       1225      31120     291       192       202       202       489       1         2         
2      324       348       31131     299       299       187       187       513       1         2         
1      903       601       31148     290       189       205       205       532       1         2         
1      950       371       31118     290       52        210       210       547       1         3         
1      476       324       31141     52        299       164       164       561       1         2         
1      1011      698       31108     84        189       191       191       565       1         3         
1      969       722       31151     290       290       167       167       617       1         3         
1      939       670       30998     291       280       410       410       634       1         2         
1      991       749       31109     290       290       210       210       636       1         3         
2      767       674       31166     290       189       119       119       638       1         2         
1      816       1180      30900     290       84        375       375       647       1         2         
1      850       672       31091     291       189       229       229       675       1         2         
2      200       35        31161     87        98        107       107       687       1         3         
3      1022      788       31163     291       290       248       248       696       1         2         
1      801       915       31148     291       291       126       126       700       1         2         
2      440       737       31141     168       189       165       165       708       1         3         
3      801       1281      31069     291       192       206       206       709       1         3         
1      929       672       31062     290       189       278       278       752       1         2         
2      311       479       31084     87        52        247       247       758       1         2         
1      328       289       31164     299       127       183       183       760       1         2         
1      950       991       31146     290       290       177       177       794       1         2         
3      826       970       31126     291       290       197       197       801       1         3         
4      772       651       31119     290       189       136       136       827       1         2         
3      936       875       31169     291       291       198       198       835       1         2         
1      499       416       31110     52        100       171       171       848       1         4         
1      814       606       31164     290       189       142       142       878       1         3         
1      179       356       31134     178       119       201       201       910       1         2         
3      924       1032      31143     290       84        211       211       944       1         2         
2      871       578       31127     291       189       185       185       1023      1         3         
1      1000      720       31151     291       290       119       119       1029      1         5         
3      1001      452       31148     291       52        276       276       1043      1         2         
1      345       578       31126     299       189       189       189       1054      1         3         
4      1026      594       31041     291       131       406       406       1084      1         2         
1      938       647       31136     291       280       177       177       1098      1         4         
1      969       580       31122     290       189       196       196       1110      1         3         
1      314       35        31116     119       98        212       212       1114      1         2         
1      1022      421       31164     291       168       192       192       1130      1         5         
3      759       1011      31149     131       84        157       157       1187      1         2         
3      1001      452       31148     291       52        276       276       1194      1         3         
1      923       738       31119     290       189       228       228       1226      1         3         
3      826       970       31126     291       290       197       197       1233      1         2         
2      430       248       31161     52        266       129       129       1234      1         2         
3      916       1090      30948     291       291       429       429       1257      1         2         
1      812       651       31121     290       189       167       167       1286      1         4         
1      1088      1149      31165     291       291       220       220       1306      1         2         
2      1068      939       31163     291       291       255       255       1309      1         2         
3      731       938       31153     131       291       128       128       1310      1         2         
3      801       1281      31069     291       192       218       218       1313      1         2         
3      440       737       31141     168       189       165       165       1326      1         3         
1      1044      189       31051     291       286       314       314       1342      1         4         
2      1044      759       31019     291       131       383       383       1342      2         3         
1      983       134       31162     291       9         227       227       1357      1         3         
2      961       824       31154     291       291       248       248       1379      1         2         
1      1087      904       31164     291       290       210       210       1395      1         4         
1      983       782       31116     291       291       288       288       1473      1         2         
3      927       768       31114     290       290       243       243       1478      1         2         
1      328       461       31159     299       189       185       185       1496      1         3         
1      924       949       31170     290       290       0         0         0         0         0         
1      842       727       31170     290       290       0         0         0         0         0         
1      925       984       31170     290       291       0         0         0         0         0         
2      1169      1229      31170     291       129       0         0         0         0         0         
1      356       79        31170     119       98        0         0         0         0         0         
3      852       746       31171     291       290       0         0         0         0         0         
1      1001      881       31171     291       290       0         0         0         0         0         
3      481       651       31171     189       189       0         0         0         0         0         
2      852       746       31171     291       290       0         0         0         0         0         
1      573       748       31171     189       290       0         0         0         0         0         
2      481       651       31171     189       189       0         0         0         0         0         
2      458       717       31171     52        189       0         0         0         0         0         
2      715       732       31171     131       131       0         0         0         0         0         
2      137       526       31171     286       52        0         0         0         0         0         
1      772       604       31171     290       189       0         0         0         0         0         
1      557       748       31172     189       290       0         0         0         0         0         
2      1168      916       31172     291       291       0         0         0         0         0         
2      826       1128      31172     291       291       0         0         0         0         0         
1      216       605       31172     178       189       0         0         0         0         0         
1      721       723       31173     290       290       0         0         0         0         0         
1      882       969       31174     290       290       0         0         0         0         0         
1      870       696       31174     291       189       0         0         0         0         0         
2      719       116       31175     189       9         0         0         0         0         0         
3      836       628       31175     290       189       0         0         0         0         0         
3      836       628       31175     290       189       0         0         0         0         0         
1      251       189       31175     127       286       0         0         0         0         0         
1      914       759       31175     291       131       0         0         0         0         0         
1      273       208       31175     206       286       0         0         0         0         0         
1      722       551       31176     290       189       0         0         0         0         0         
3      583       1048      31176     189       291       0         0         0         0         0         
1      603       559       31176     189       189       0         0         0         0         0         
1      419       351       31176     168       52        0         0         0         0         0         
1      48        357       31176     98        277       0         0         0         0         0         
1      700       813       31176     290       290       0         0         0         0         0         
1      545       619       31176     52        131       0         0         0         0         0         
1      768       578       31176     290       189       0         0         0         0         0         
2      583       1048      31176     189       291       0         0         0         0         0         
1      894       1517      31176     291       296       0         0         0         0         0         
2      527       602       31176     52        189       0         0         0         0         0         
1      213       408       31176     266       299       0         0         0         0         0         
1      673       483       31177     189       189       0         0         0         0         0         
2      180       647       31177     178       280       0         0         0         0         0         
1      389       544       31177     299       52        0         0         0         0         0         
1      961       968       31177     291       290       0         0         0         0         0         
1      643       557       31177     131       189       0         0         0         0         0         
1      60        136       31178     9         286       0         0         0         0         0         
1      745       905       31178     290       290       0         0         0         0         0         
1      727       669       31178     290       280       0         0         0         0         0         
1      417       331       31178     100       127       0         0         0         0         0         
1      1022      650       31179     291       189       0         0         0         0         0         
2      193       269       31179     266       127       0         0         0         0         0         
1      274       411       31179     87        52        0         0         0         0         0         
1      749       675       31179     290       189       0         0         0         0         0         
2      849       680       31179     291       290       0         0         0         0         0         
3      356       418       31179     119       168       0         0         0         0         0         
1      609       557       31180     189       189       0         0         0         0         0         
1      905       723       31180     290       290       0         0         0         0         0         
1      690       556       31180     131       199       0         0         0         0         0         
1      485       182       31180     189       178       0         0         0         0         0         
1      700       748       31180     290       290       0         0         0         0         0         
3      1106      1022      31181     291       291       0         0         0         0         0         
1      679       742       31181     290       290       0         0         0         0         0         
1      691       627       31181     131       189       0         0         0         0         0         
1      991       905       31181     290       290       0         0         0         0         0         
1      873       670       31181     291       280       0         0         0         0         0         
1      275       603       31181     87        189       0         0         0         0         0         
1      414       414       31181     100       100       0         0         0         0         0         
1      814       969       31181     290       290       0         0         0         0         0         
1      677       331       31181     189       127       0         0         0         0         0         
1      556       35        31182     199       98        0         0         0         0         0         
1      663       545       31182     131       52        0         0         0         0         0         
2      287       537       31182     299       189       0         0         0         0         0         
1      551       626       31182     189       189       0         0         0         0         0         
1      534       535       31182     199       189       0         0         0         0         0         
1      34        386       31183     98        299       0         0         0         0         0         
1      834       990       31183     290       290       0         0         0         0         0         
1      392       527       31183     52        52        0         0         0         0         0         
1      349       463       31183     127       168       0         0         0         0         0         
1      106       170       31183     178       286       0         0         0         0         0         
1      512       549       31184     199       52        0         0         0         0         0         
1      818       678       31184     290       290       0         0         0         0         0         
1      557       505       31184     189       52        0         0         0         0         0         
1      884       969       31184     290       290       0         0         0         0         0         
1      310       171       31184     127       286       0         0         0         0         0         
1      642       506       31185     131       189       0         0         0         0         0         
2      549       651       31185     52        189       0         0         0         0         0         
2      778       1011      31185     131       84        0         0         0         0         0         
1      347       350       31185     299       127       0         0         0         0         0         
1      217       789       31186     87        290       0         0         0         0         0         
1      915       628       31186     291       189       0         0         0         0         0         
2      624       690       31186     189       131       0         0         0         0         0         
2      703       558       31186     290       189       0         0         0         0         0         
3      703       558       31186     290       189       0         0         0         0         0         
1      1489      1074      31186     296       84        0         0         0         0         0         
3      61        520       31187     98        52        0         0         0         0         0         
3      61        520       31187     98        52        0         0         0         0         0         
1      694       527       31187     189       52        0         0         0         0         0         
1      527       462       31187     52        189       0         0         0         0         0         
1      476       331       31187     52        127       0         0         0         0         0         
1      333       368       31187     119       299       0         0         0         0         0         
1      522       556       31187     52        199       0         0         0         0         0         
1      609       651       31187     189       189       0         0         0         0         0         
1      924       32        31187     290       98        0         0         0         0         0         
2      352       698       31187     119       189       0         0         0         0         0         
1      950       905       31188     290       290       0         0         0         0         0         
3      481       884       31188     189       290       0         0         0         0         0         
2      481       884       31188     189       290       0         0         0         0         0         
1      1010      696       31188     290       189       0         0         0         0         0         
1      20        438       31188     98        100       0         0         0         0         0         
1      510       417       31188     199       100       0         0         0         0         0         
1      971       1161      31188     290       84        0         0         0         0         0         
1      992       937       31188     290       291       0         0         0         0         0         
1      183       233       31189     178       206       0         0         0         0         0         
3      698       812       31189     189       290       0         0         0         0         0         
3      698       812       31189     189       290       0         0         0         0         0         
1      801       350       31189     291       127       0         0         0         0         0         
1      1023      749       31190     291       290       0         0         0         0         0         
1      772       699       31190     290       290       0         0         0         0         0         
1      133       666       31190     9         131       0         0         0         0         0         
1      782       748       31190     291       290       0         0         0         0         0         
1      116       671       31190     9         280       0         0         0         0         0         
1      742       947       31190     290       290       0         0         0         0         0         
1      304       503       31190     299       52        0         0         0         0         0         
3      837       232       31191     290       266       0         0         0         0         0         
3      837       232       31191     290       266       0         0         0         0         0         
2      882       812       31191     290       290       0         0         0         0         0         
3      882       812       31191     290       290       0         0         0         0         0         
1      345       247       31191     299       266       0         0         0         0         0         
4      778       606       31191     131       189       0         0         0         0         0         
1      755       30        31191     131       9         0         0         0         0         0         
1      608       654       31191     189       189       0         0         0         0         0         
1      574       507       31191     189       189       0         0         0         0         0         
1      894       968       31192     291       290       0         0         0         0         0         
3      1034      738       31192     84        189       0         0         0         0         0         
3      1034      738       31192     84        189       0         0         0         0         0         
1      789       698       31192     290       189       0         0         0         0         0         
1      609       536       31192     189       189       0         0         0         0         0         
1      527       555       31192     52        199       0         0         0         0         0         
1      345       603       31192     299       189       0         0         0         0         0         
1      795       415       31192     290       100       0         0         0         0         0         
1      236       578       31192     87        189       0         0         0         0         0         
1      928       1217      31193     290       84        0         0         0         0         0         
1      969       1243      31193     290       192       0         0         0         0         0         
1      656       772       31193     290       290       0         0         0         0         0         
1      66        314       31193     98        119       0         0         0         0         0         
1      529       457       31193     189       52        0         0         0         0         0         
1      1128      1282      31194     291       192       0         0         0         0         0         
1      252       417       31194     206       100       0         0         0         0         0         
1      152       581       31194     9         189       0         0         0         0         0         
1      533       176       31194     199       174       0         0         0         0         0         
1      64        138       31194     98        57        0         0         0         0         0         
2      621       648       31194     280       189       0         0         0         0         0         
1      904       649       31194     290       189       0         0         0         0         0         
1      813       10        31194     290       98        0         0         0         0         0         
2      452       553       31194     52        189       0         0         0         0         0         
1      529       98        31194     189       98        0         0         0         0         0         
1      1235      1137      31195     84        84        0         0         0         0         0         
1      1047      579       31195     291       189       0         0         0         0         0         
1      579       765       31195     189       290       0         0         0         0         0         
1      269       462       31195     127       189       0         0         0         0         0         
1      1025      851       31196     291       291       0         0         0         0         0         
2      1048      926       31196     291       290       0         0         0         0         0         
1      950       859       31196     290       290       0         0         0         0         0         
2      662       1011      31196     131       84        0         0         0         0         0         
1      484       438       31196     189       100       0         0         0         0         0         
1      526       545       31196     52        52        0         0         0         0         0         
1      1300      1004      31196     192       291       0         0         0         0         0         
1      348       374       31197     299       119       0         0         0         0         0         
3      304       155       31197     299       286       0         0         0         0         0         
3      304       155       31197     299       286       0         0         0         0         0         
1      250       351       31197     127       52        0         0         0         0         0         
2      292       509       31197     87        199       0         0         0         0         0         
3      700       726       31198     290       290       0         0         0         0         0         
2      700       726       31198     290       290       0         0         0         0         0         
1      579       624       31198     189       189       0         0         0         0         0         
1      739       604       31198     189       189       0         0         0         0         0         
1      584       648       31198     189       189       0         0         0         0         0         
1      396       419       31198     119       168       0         0         0         0         0         
1      1002      722       31198     291       290       0         0         0         0         0         
1      408       544       31198     299       52        0         0         0         0         0         
1      409       328       31198     52        299       0         0         0         0         0         
3      654       462       31198     189       189       0         0         0         0         0         
1      108       399       31199     178       168       0         0         0         0         0         
2      605       1032      31199     189       84        0         0         0         0         0         
1      571       544       31199     52        52        0         0         0         0         0         
1      968       1233      31199     290       129       0         0         0         0         0         
1      917       804       31199     291       291       0         0         0         0         0         
1      782       627       31199     291       189       0         0         0         0         0         
1      858       1100      31199     290       84        0         0         0         0         0         
1      533       441       31199     199       168       0         0         0         0         0         
1      179       513       31199     178       199       0         0         0         0         0         
